small
0 30 0.76
1 33 0.55
2 28 0.57
3 33 0.39
4 28 0.53
5 33 0.51
6 31 0.51
7 32 0.25
8 28 0.33
9 34 0.89
10 25 0.39
11 29 0.76
12 27 0.5
13 30 0.32
14 27 0.48
medium
0 278 58.43
1 267 73.99
2 284 65.39
3 286 45.71
4 279 43.66
5 287 35.54
6 269 83.09
7 282 51.19
8 268 53.09
9 290 46.48
10 280 67.89
11 269 82.9
12 266 77.52
13 289 38.81
14 296 28.54
large
0 1479 566.78
1 1483 574.89
2 1471 569.5
3 1484 566.83
4 1486 568.77
5 1487 566.25
6 1473 600.21
7 1473 563.64
8 1501 567.98
9 1487 575.37
10 1487 578.51
11 1483 600.3
12 1473 600.13
13 1472 600.51
14 1487 600.19
